submitit INFO (2023-05-02 18:49:40,203) - Starting with JobEnvironment(job_id=27733, hostname=cpunode2, local_rank=2(5), node=0(1), global_rank=2(5))
submitit INFO (2023-05-02 18:49:40,203) - Loading pickle: /h/30/pashootan/Matrix-Mult-CP/src/../logs/4/3x1x3_9_May02_18:49:36/27733_submitted.pkl
 ! --------------------------------------------------- CP Optimizer 22.1.1.0 --
 ! Satisfiability problem - 135 variables, 81 constraints
 ! TimeLimit            = 7200
 ! Workers              = 8
 ! LogPeriod            = 10000000
 ! RandomSeed           = 8530
 ! Initial process time : 0.00s (0.00s extraction + 0.00s propagation)
 !  . Log search space  : 214.0 (before), 214.0 (after)
 !  . Memory usage      : 530.7 kB (before), 530.7 kB (after)
 ! Using parallel search with 8 workers.
 ! ----------------------------------------------------------------------------
 !               Branches  Non-fixed    W       Branch decision
 *                  31872  0.27s        6        -1  = U4_2
 ! ----------------------------------------------------------------------------
 ! Search completed, 1 solution found.
 ! ----------------------------------------------------------------------------
 ! Number of branches     : 255512
 ! Number of fails        : 112028
 ! Total memory usage     : 10.3 MB (10.2 MB CP Optimizer + 0.1 MB Concert)
 ! Time spent in solve    : 0.29s (0.29s engine + 0.00s extraction)
 ! Search speed (br. / s) : 912542.9
 ! ----------------------------------------------------------------------------
Feasible
Model is valid
Saving solution to: /h/30/pashootan/Matrix-Mult-CP/logs/4/3x1x3_9_May02_18:49:36/27733_2_solution.txt
Saving stats to: /h/30/pashootan/Matrix-Mult-CP/logs/4/3x1x3_9_May02_18:49:36/27733_2_stats.csv
submitit INFO (2023-05-02 18:49:40,896) - Job completed successfully
